NAME: ACTUAL_TOURS/amz1510
TYPE: TOUR
COMMENT: RouteID_a2aad8f3-6aef-4217-b382-a75b29ef2833
DIMENSION: 154
TOUR_SECTION
100
90
27
74
72
31
65
13
8
28
49
141
61
77
146
98
153
104
127
18
113
134
70
36
16
125
22
124
145
86
64
122
55
129
63
103
47
89
2
50
143
26
21
101
68
17
1
140
123
95
6
83
91
45
115
147
51
11
121
116
35
96
32
117
71
82
154
42
48
112
15
139
25
7
24
107
76
43
41
10
39
102
136
58
94
106
111
97
78
30
12
66
40
135
92
105
75
62
79
5
60
81
57
23
59
152
119
126
110
130
29
149
84
88
37
151
132
69
128
148
137
73
44
150
34
67
53
109
93
131
4
133
87
80
19
14
54
108
56
120
33
46
118
38
144
52
138
114
3
9
85
20
142
99
-1
EOF
